(declare-datatypes (T1 T2 T3 T4 T5)
 ((Recv (mk-recv (match T1) (ep T2) (var T3) (event T4) (nearestwait T5)))))
(declare-datatypes (T1 T2 T3 T4)
((Send (mk-send (match T1) (ep T2) (value T3) (event T4)))))

(define-fun HB ((a Int) (b Int)) Bool
  (if(< a b)
 true
 false))

(define-fun MATCH ((r (Recv Int Int Int Int Int)) (s (Send Int Int Int Int))) Bool
(if(and (= (ep r) (ep s)) (= (var r) (value s))
(HB (event s) (nearestwait r)) (= (match r) (event s))
(= (match s) (event r)))
true
false
)
)

(declare-const T0_0 Int)
(declare-const out_0_0 Int)
(declare-const T0_1 Int)
(declare-const T0_2 Int)
(declare-const T0_3 Int)
(declare-const T0_4 Int)
(declare-const in_0_0 Int)
(declare-const T0_5 Int)
(declare-const T0_6 Int)
(declare-const T0_7 Int)
(declare-const T0_8 Int)
(declare-const out_0_1 Int)
(declare-const T0_9 Int)
(declare-const T0_10 Int)
(declare-const T0_11 Int)
(declare-const T0_12 Int)
(declare-const in_0_1 Int)
(declare-const T0_13 Int)
(declare-const T0_14 Int)
(declare-const in_0_2 Int)
(declare-const T0_15 Int)
(declare-const T0_16 Int)
(declare-const in_0_3 Int)
(declare-const T0_17 Int)
(declare-const T0_18 Int)
(declare-const T1_0 Int)
(declare-const out_1_0 Int)
(declare-const T1_1 Int)
(declare-const T1_2 Int)
(declare-const T1_3 Int)
(declare-const T1_4 Int)
(declare-const in_1_0 Int)
(declare-const T1_5 Int)
(declare-const T1_6 Int)
(declare-const T1_7 Int)
(declare-const T1_8 Int)
(declare-const out_1_1 Int)
(declare-const T1_9 Int)
(declare-const T1_10 Int)
(declare-const T1_11 Int)
(declare-const T1_12 Int)
(declare-const in_1_1 Int)
(declare-const T1_13 Int)
(declare-const T1_14 Int)
(declare-const in_1_2 Int)
(declare-const T1_15 Int)
(declare-const T1_16 Int)
(declare-const in_1_3 Int)
(declare-const T1_17 Int)
(declare-const T1_18 Int)
(declare-const T2_0 Int)
(declare-const out_2_0 Int)
(declare-const T2_1 Int)
(declare-const T2_2 Int)
(declare-const T2_3 Int)
(declare-const T2_4 Int)
(declare-const in_2_0 Int)
(declare-const T2_5 Int)
(declare-const T2_6 Int)
(declare-const T2_7 Int)
(declare-const T2_8 Int)
(declare-const out_2_1 Int)
(declare-const T2_9 Int)
(declare-const T2_10 Int)
(declare-const T2_11 Int)
(declare-const T2_12 Int)
(declare-const in_2_1 Int)
(declare-const T2_13 Int)
(declare-const T2_14 Int)
(declare-const in_2_2 Int)
(declare-const T2_15 Int)
(declare-const T2_16 Int)
(declare-const in_2_3 Int)
(declare-const T2_17 Int)
(declare-const T2_18 Int)
(declare-const T3_0 Int)
(declare-const out_3_0 Int)
(declare-const T3_1 Int)
(declare-const T3_2 Int)
(declare-const T3_3 Int)
(declare-const T3_4 Int)
(declare-const in_3_0 Int)
(declare-const T3_5 Int)
(declare-const T3_6 Int)
(declare-const T3_7 Int)
(declare-const T3_8 Int)
(declare-const out_3_1 Int)
(declare-const T3_9 Int)
(declare-const T3_10 Int)
(declare-const T3_11 Int)
(declare-const T3_12 Int)
(declare-const in_3_1 Int)
(declare-const T3_13 Int)
(declare-const T3_14 Int)
(declare-const in_3_2 Int)
(declare-const T3_15 Int)
(declare-const T3_16 Int)
(declare-const in_3_3 Int)
(declare-const T3_17 Int)
(declare-const T3_18 Int)
(declare-const T4_0 Int)
(declare-const out_4_0 Int)
(declare-const T4_1 Int)
(declare-const T4_2 Int)
(declare-const T4_3 Int)
(declare-const T4_4 Int)
(declare-const in_4_0 Int)
(declare-const T4_5 Int)
(declare-const T4_6 Int)
(declare-const T4_7 Int)
(declare-const T4_8 Int)
(declare-const out_4_1 Int)
(declare-const T4_9 Int)
(declare-const T4_10 Int)
(declare-const T4_11 Int)
(declare-const T4_12 Int)
(declare-const in_4_1 Int)
(declare-const T4_13 Int)
(declare-const T4_14 Int)
(declare-const in_4_2 Int)
(declare-const T4_15 Int)
(declare-const T4_16 Int)
(declare-const in_4_3 Int)
(declare-const T4_17 Int)
(declare-const T4_18 Int)
(declare-const T5_0 Int)
(declare-const out_5_0 Int)
(declare-const T5_1 Int)
(declare-const T5_2 Int)
(declare-const T5_3 Int)
(declare-const T5_4 Int)
(declare-const in_5_0 Int)
(declare-const T5_5 Int)
(declare-const T5_6 Int)
(declare-const T5_7 Int)
(declare-const T5_8 Int)
(declare-const out_5_1 Int)
(declare-const T5_9 Int)
(declare-const T5_10 Int)
(declare-const T5_11 Int)
(declare-const T5_12 Int)
(declare-const in_5_1 Int)
(declare-const T5_13 Int)
(declare-const T5_14 Int)
(declare-const in_5_2 Int)
(declare-const T5_15 Int)
(declare-const T5_16 Int)
(declare-const in_5_3 Int)
(declare-const T5_17 Int)
(declare-const T5_18 Int)
(declare-const T6_0 Int)
(declare-const out_6_0 Int)
(declare-const T6_1 Int)
(declare-const T6_2 Int)
(declare-const T6_3 Int)
(declare-const T6_4 Int)
(declare-const in_6_0 Int)
(declare-const T6_5 Int)
(declare-const T6_6 Int)
(declare-const T6_7 Int)
(declare-const T6_8 Int)
(declare-const out_6_1 Int)
(declare-const T6_9 Int)
(declare-const T6_10 Int)
(declare-const T6_11 Int)
(declare-const T6_12 Int)
(declare-const in_6_1 Int)
(declare-const T6_13 Int)
(declare-const T6_14 Int)
(declare-const in_6_2 Int)
(declare-const T6_15 Int)
(declare-const T6_16 Int)
(declare-const in_6_3 Int)
(declare-const T6_17 Int)
(declare-const T6_18 Int)
(declare-const T7_0 Int)
(declare-const out_7_0 Int)
(declare-const T7_1 Int)
(declare-const T7_2 Int)
(declare-const T7_3 Int)
(declare-const T7_4 Int)
(declare-const in_7_0 Int)
(declare-const T7_5 Int)
(declare-const T7_6 Int)
(declare-const T7_7 Int)
(declare-const T7_8 Int)
(declare-const out_7_1 Int)
(declare-const T7_9 Int)
(declare-const T7_10 Int)
(declare-const T7_11 Int)
(declare-const T7_12 Int)
(declare-const in_7_1 Int)
(declare-const T7_13 Int)
(declare-const T7_14 Int)
(declare-const in_7_2 Int)
(declare-const T7_15 Int)
(declare-const T7_16 Int)
(declare-const in_7_3 Int)
(declare-const T7_17 Int)
(declare-const T7_18 Int)

(assert (distinct T0_0 T0_1 T0_2 T0_3 T0_4 T0_5 T0_6 T0_7 T0_8 T0_9 T0_10 T0_11 T0_12 T0_13 T0_14 T0_15 T0_16 T0_17 T0_18 T1_0 T1_1 T1_2 T1_3 T1_4 T1_5 T1_6 T1_7 T1_8 T1_9 T1_10 T1_11 T1_12 T1_13 T1_14 T1_15 T1_16 T1_17 T1_18 T2_0 T2_1 T2_2 T2_3 T2_4 T2_5 T2_6 T2_7 T2_8 T2_9 T2_10 T2_11 T2_12 T2_13 T2_14 T2_15 T2_16 T2_17 T2_18 T3_0 T3_1 T3_2 T3_3 T3_4 T3_5 T3_6 T3_7 T3_8 T3_9 T3_10 T3_11 T3_12 T3_13 T3_14 T3_15 T3_16 T3_17 T3_18 T4_0 T4_1 T4_2 T4_3 T4_4 T4_5 T4_6 T4_7 T4_8 T4_9 T4_10 T4_11 T4_12 T4_13 T4_14 T4_15 T4_16 T4_17 T4_18 T5_0 T5_1 T5_2 T5_3 T5_4 T5_5 T5_6 T5_7 T5_8 T5_9 T5_10 T5_11 T5_12 T5_13 T5_14 T5_15 T5_16 T5_17 T5_18 T6_0 T6_1 T6_2 T6_3 T6_4 T6_5 T6_6 T6_7 T6_8 T6_9 T6_10 T6_11 T6_12 T6_13 T6_14 T6_15 T6_16 T6_17 T6_18 T7_0 T7_1 T7_2 T7_3 T7_4 T7_5 T7_6 T7_7 T7_8 T7_9 T7_10 T7_11 T7_12 T7_13 T7_14 T7_15 T7_16 T7_17 T7_18 ))

(declare-const sendT0_0 (Send Int Int Int Int))
(assert (and (= (ep sendT0_0) 7) (= (event sendT0_0) T0_0) (= (value sendT0_0) out_0_0)))
(declare-const sendT0_2 (Send Int Int Int Int))
(assert (and (= (ep sendT0_2) 1) (= (event sendT0_2) T0_2) (= (value sendT0_2) out_0_0)))
(declare-const recvT0_4 (Recv Int Int Int Int Int))
(assert (and (= (ep recvT0_4) 0) (= (event recvT0_4) T0_4) (= (var recvT0_4) in_0_0)))
(assert (= (nearestwait recvT0_4) T0_5))
(declare-const sendT0_8 (Send Int Int Int Int))
(assert (and (= (ep sendT0_8) 7) (= (event sendT0_8) T0_8) (= (value sendT0_8) out_0_1)))
(declare-const sendT0_10 (Send Int Int Int Int))
(assert (and (= (ep sendT0_10) 1) (= (event sendT0_10) T0_10) (= (value sendT0_10) out_0_1)))
(declare-const recvT0_12 (Recv Int Int Int Int Int))
(assert (and (= (ep recvT0_12) 0) (= (event recvT0_12) T0_12) (= (var recvT0_12) in_0_1)))
(assert (= (nearestwait recvT0_12) T0_13))
(declare-const recvT0_14 (Recv Int Int Int Int Int))
(assert (and (= (ep recvT0_14) 0) (= (event recvT0_14) T0_14) (= (var recvT0_14) in_0_2)))
(assert (= (nearestwait recvT0_14) T0_15))
(declare-const recvT0_16 (Recv Int Int Int Int Int))
(assert (and (= (ep recvT0_16) 0) (= (event recvT0_16) T0_16) (= (var recvT0_16) in_0_3)))
(assert (= (nearestwait recvT0_16) T0_17))
(declare-const sendT1_0 (Send Int Int Int Int))
(assert (and (= (ep sendT1_0) 0) (= (event sendT1_0) T1_0) (= (value sendT1_0) out_1_0)))
(declare-const sendT1_2 (Send Int Int Int Int))
(assert (and (= (ep sendT1_2) 2) (= (event sendT1_2) T1_2) (= (value sendT1_2) out_1_0)))
(declare-const recvT1_4 (Recv Int Int Int Int Int))
(assert (and (= (ep recvT1_4) 1) (= (event recvT1_4) T1_4) (= (var recvT1_4) in_1_0)))
(assert (= (nearestwait recvT1_4) T1_5))
(declare-const sendT1_8 (Send Int Int Int Int))
(assert (and (= (ep sendT1_8) 0) (= (event sendT1_8) T1_8) (= (value sendT1_8) out_1_1)))
(declare-const sendT1_10 (Send Int Int Int Int))
(assert (and (= (ep sendT1_10) 2) (= (event sendT1_10) T1_10) (= (value sendT1_10) out_1_1)))
(declare-const recvT1_12 (Recv Int Int Int Int Int))
(assert (and (= (ep recvT1_12) 1) (= (event recvT1_12) T1_12) (= (var recvT1_12) in_1_1)))
(assert (= (nearestwait recvT1_12) T1_13))
(declare-const recvT1_14 (Recv Int Int Int Int Int))
(assert (and (= (ep recvT1_14) 1) (= (event recvT1_14) T1_14) (= (var recvT1_14) in_1_2)))
(assert (= (nearestwait recvT1_14) T1_15))
(declare-const recvT1_16 (Recv Int Int Int Int Int))
(assert (and (= (ep recvT1_16) 1) (= (event recvT1_16) T1_16) (= (var recvT1_16) in_1_3)))
(assert (= (nearestwait recvT1_16) T1_17))
(declare-const sendT2_0 (Send Int Int Int Int))
(assert (and (= (ep sendT2_0) 1) (= (event sendT2_0) T2_0) (= (value sendT2_0) out_2_0)))
(declare-const sendT2_2 (Send Int Int Int Int))
(assert (and (= (ep sendT2_2) 3) (= (event sendT2_2) T2_2) (= (value sendT2_2) out_2_0)))
(declare-const recvT2_4 (Recv Int Int Int Int Int))
(assert (and (= (ep recvT2_4) 2) (= (event recvT2_4) T2_4) (= (var recvT2_4) in_2_0)))
(assert (= (nearestwait recvT2_4) T2_5))
(declare-const sendT2_8 (Send Int Int Int Int))
(assert (and (= (ep sendT2_8) 1) (= (event sendT2_8) T2_8) (= (value sendT2_8) out_2_1)))
(declare-const sendT2_10 (Send Int Int Int Int))
(assert (and (= (ep sendT2_10) 3) (= (event sendT2_10) T2_10) (= (value sendT2_10) out_2_1)))
(declare-const recvT2_12 (Recv Int Int Int Int Int))
(assert (and (= (ep recvT2_12) 2) (= (event recvT2_12) T2_12) (= (var recvT2_12) in_2_1)))
(assert (= (nearestwait recvT2_12) T2_13))
(declare-const recvT2_14 (Recv Int Int Int Int Int))
(assert (and (= (ep recvT2_14) 2) (= (event recvT2_14) T2_14) (= (var recvT2_14) in_2_2)))
(assert (= (nearestwait recvT2_14) T2_15))
(declare-const recvT2_16 (Recv Int Int Int Int Int))
(assert (and (= (ep recvT2_16) 2) (= (event recvT2_16) T2_16) (= (var recvT2_16) in_2_3)))
(assert (= (nearestwait recvT2_16) T2_17))
(declare-const sendT3_0 (Send Int Int Int Int))
(assert (and (= (ep sendT3_0) 2) (= (event sendT3_0) T3_0) (= (value sendT3_0) out_3_0)))
(declare-const sendT3_2 (Send Int Int Int Int))
(assert (and (= (ep sendT3_2) 4) (= (event sendT3_2) T3_2) (= (value sendT3_2) out_3_0)))
(declare-const recvT3_4 (Recv Int Int Int Int Int))
(assert (and (= (ep recvT3_4) 3) (= (event recvT3_4) T3_4) (= (var recvT3_4) in_3_0)))
(assert (= (nearestwait recvT3_4) T3_5))
(declare-const sendT3_8 (Send Int Int Int Int))
(assert (and (= (ep sendT3_8) 2) (= (event sendT3_8) T3_8) (= (value sendT3_8) out_3_1)))
(declare-const sendT3_10 (Send Int Int Int Int))
(assert (and (= (ep sendT3_10) 4) (= (event sendT3_10) T3_10) (= (value sendT3_10) out_3_1)))
(declare-const recvT3_12 (Recv Int Int Int Int Int))
(assert (and (= (ep recvT3_12) 3) (= (event recvT3_12) T3_12) (= (var recvT3_12) in_3_1)))
(assert (= (nearestwait recvT3_12) T3_13))
(declare-const recvT3_14 (Recv Int Int Int Int Int))
(assert (and (= (ep recvT3_14) 3) (= (event recvT3_14) T3_14) (= (var recvT3_14) in_3_2)))
(assert (= (nearestwait recvT3_14) T3_15))
(declare-const recvT3_16 (Recv Int Int Int Int Int))
(assert (and (= (ep recvT3_16) 3) (= (event recvT3_16) T3_16) (= (var recvT3_16) in_3_3)))
(assert (= (nearestwait recvT3_16) T3_17))
(declare-const sendT4_0 (Send Int Int Int Int))
(assert (and (= (ep sendT4_0) 3) (= (event sendT4_0) T4_0) (= (value sendT4_0) out_4_0)))
(declare-const sendT4_2 (Send Int Int Int Int))
(assert (and (= (ep sendT4_2) 5) (= (event sendT4_2) T4_2) (= (value sendT4_2) out_4_0)))
(declare-const recvT4_4 (Recv Int Int Int Int Int))
(assert (and (= (ep recvT4_4) 4) (= (event recvT4_4) T4_4) (= (var recvT4_4) in_4_0)))
(assert (= (nearestwait recvT4_4) T4_5))
(declare-const sendT4_8 (Send Int Int Int Int))
(assert (and (= (ep sendT4_8) 3) (= (event sendT4_8) T4_8) (= (value sendT4_8) out_4_1)))
(declare-const sendT4_10 (Send Int Int Int Int))
(assert (and (= (ep sendT4_10) 5) (= (event sendT4_10) T4_10) (= (value sendT4_10) out_4_1)))
(declare-const recvT4_12 (Recv Int Int Int Int Int))
(assert (and (= (ep recvT4_12) 4) (= (event recvT4_12) T4_12) (= (var recvT4_12) in_4_1)))
(assert (= (nearestwait recvT4_12) T4_13))
(declare-const recvT4_14 (Recv Int Int Int Int Int))
(assert (and (= (ep recvT4_14) 4) (= (event recvT4_14) T4_14) (= (var recvT4_14) in_4_2)))
(assert (= (nearestwait recvT4_14) T4_15))
(declare-const recvT4_16 (Recv Int Int Int Int Int))
(assert (and (= (ep recvT4_16) 4) (= (event recvT4_16) T4_16) (= (var recvT4_16) in_4_3)))
(assert (= (nearestwait recvT4_16) T4_17))
(declare-const sendT5_0 (Send Int Int Int Int))
(assert (and (= (ep sendT5_0) 4) (= (event sendT5_0) T5_0) (= (value sendT5_0) out_5_0)))
(declare-const sendT5_2 (Send Int Int Int Int))
(assert (and (= (ep sendT5_2) 6) (= (event sendT5_2) T5_2) (= (value sendT5_2) out_5_0)))
(declare-const recvT5_4 (Recv Int Int Int Int Int))
(assert (and (= (ep recvT5_4) 5) (= (event recvT5_4) T5_4) (= (var recvT5_4) in_5_0)))
(assert (= (nearestwait recvT5_4) T5_5))
(declare-const sendT5_8 (Send Int Int Int Int))
(assert (and (= (ep sendT5_8) 4) (= (event sendT5_8) T5_8) (= (value sendT5_8) out_5_1)))
(declare-const sendT5_10 (Send Int Int Int Int))
(assert (and (= (ep sendT5_10) 6) (= (event sendT5_10) T5_10) (= (value sendT5_10) out_5_1)))
(declare-const recvT5_12 (Recv Int Int Int Int Int))
(assert (and (= (ep recvT5_12) 5) (= (event recvT5_12) T5_12) (= (var recvT5_12) in_5_1)))
(assert (= (nearestwait recvT5_12) T5_13))
(declare-const recvT5_14 (Recv Int Int Int Int Int))
(assert (and (= (ep recvT5_14) 5) (= (event recvT5_14) T5_14) (= (var recvT5_14) in_5_2)))
(assert (= (nearestwait recvT5_14) T5_15))
(declare-const recvT5_16 (Recv Int Int Int Int Int))
(assert (and (= (ep recvT5_16) 5) (= (event recvT5_16) T5_16) (= (var recvT5_16) in_5_3)))
(assert (= (nearestwait recvT5_16) T5_17))
(declare-const sendT6_0 (Send Int Int Int Int))
(assert (and (= (ep sendT6_0) 5) (= (event sendT6_0) T6_0) (= (value sendT6_0) out_6_0)))
(declare-const sendT6_2 (Send Int Int Int Int))
(assert (and (= (ep sendT6_2) 7) (= (event sendT6_2) T6_2) (= (value sendT6_2) out_6_0)))
(declare-const recvT6_4 (Recv Int Int Int Int Int))
(assert (and (= (ep recvT6_4) 6) (= (event recvT6_4) T6_4) (= (var recvT6_4) in_6_0)))
(assert (= (nearestwait recvT6_4) T6_5))
(declare-const sendT6_8 (Send Int Int Int Int))
(assert (and (= (ep sendT6_8) 5) (= (event sendT6_8) T6_8) (= (value sendT6_8) out_6_1)))
(declare-const sendT6_10 (Send Int Int Int Int))
(assert (and (= (ep sendT6_10) 7) (= (event sendT6_10) T6_10) (= (value sendT6_10) out_6_1)))
(declare-const recvT6_12 (Recv Int Int Int Int Int))
(assert (and (= (ep recvT6_12) 6) (= (event recvT6_12) T6_12) (= (var recvT6_12) in_6_1)))
(assert (= (nearestwait recvT6_12) T6_13))
(declare-const recvT6_14 (Recv Int Int Int Int Int))
(assert (and (= (ep recvT6_14) 6) (= (event recvT6_14) T6_14) (= (var recvT6_14) in_6_2)))
(assert (= (nearestwait recvT6_14) T6_15))
(declare-const recvT6_16 (Recv Int Int Int Int Int))
(assert (and (= (ep recvT6_16) 6) (= (event recvT6_16) T6_16) (= (var recvT6_16) in_6_3)))
(assert (= (nearestwait recvT6_16) T6_17))
(declare-const sendT7_0 (Send Int Int Int Int))
(assert (and (= (ep sendT7_0) 6) (= (event sendT7_0) T7_0) (= (value sendT7_0) out_7_0)))
(declare-const sendT7_2 (Send Int Int Int Int))
(assert (and (= (ep sendT7_2) 0) (= (event sendT7_2) T7_2) (= (value sendT7_2) out_7_0)))
(declare-const recvT7_4 (Recv Int Int Int Int Int))
(assert (and (= (ep recvT7_4) 7) (= (event recvT7_4) T7_4) (= (var recvT7_4) in_7_0)))
(assert (= (nearestwait recvT7_4) T7_5))
(declare-const sendT7_8 (Send Int Int Int Int))
(assert (and (= (ep sendT7_8) 6) (= (event sendT7_8) T7_8) (= (value sendT7_8) out_7_1)))
(declare-const sendT7_10 (Send Int Int Int Int))
(assert (and (= (ep sendT7_10) 0) (= (event sendT7_10) T7_10) (= (value sendT7_10) out_7_1)))
(declare-const recvT7_12 (Recv Int Int Int Int Int))
(assert (and (= (ep recvT7_12) 7) (= (event recvT7_12) T7_12) (= (var recvT7_12) in_7_1)))
(assert (= (nearestwait recvT7_12) T7_13))
(declare-const recvT7_14 (Recv Int Int Int Int Int))
(assert (and (= (ep recvT7_14) 7) (= (event recvT7_14) T7_14) (= (var recvT7_14) in_7_2)))
(assert (= (nearestwait recvT7_14) T7_15))
(declare-const recvT7_16 (Recv Int Int Int Int Int))
(assert (and (= (ep recvT7_16) 7) (= (event recvT7_16) T7_16) (= (var recvT7_16) in_7_3)))
(assert (= (nearestwait recvT7_16) T7_17))

(assert (and
(HB T0_4 T0_5) (HB T0_0 T0_8) (HB T0_5 T0_8) (HB T0_2 T0_10) (HB T0_5 T0_10) (HB T0_4 T0_12) (HB T0_12 T0_13) (HB T0_12 T0_14) (HB T0_14 T0_15) (HB T0_14 T0_16) (HB T0_16 T0_17) (HB T1_4 T1_5) (HB T1_0 T1_8) (HB T1_5 T1_8) (HB T1_2 T1_10) (HB T1_5 T1_10) (HB T1_4 T1_12) (HB T1_12 T1_13) (HB T1_12 T1_14) (HB T1_14 T1_15) (HB T1_14 T1_16) (HB T1_16 T1_17) (HB T2_4 T2_5) (HB T2_0 T2_8) (HB T2_5 T2_8) (HB T2_2 T2_10) (HB T2_5 T2_10) (HB T2_4 T2_12) (HB T2_12 T2_13) (HB T2_12 T2_14) (HB T2_14 T2_15) (HB T2_14 T2_16) (HB T2_16 T2_17) (HB T3_4 T3_5) (HB T3_0 T3_8) (HB T3_5 T3_8) (HB T3_2 T3_10) (HB T3_5 T3_10) (HB T3_4 T3_12) (HB T3_12 T3_13) (HB T3_12 T3_14) (HB T3_14 T3_15) (HB T3_14 T3_16) (HB T3_16 T3_17) (HB T4_4 T4_5) (HB T4_0 T4_8) (HB T4_5 T4_8) (HB T4_2 T4_10) (HB T4_5 T4_10) (HB T4_4 T4_12) (HB T4_12 T4_13) (HB T4_12 T4_14) (HB T4_14 T4_15) (HB T4_14 T4_16) (HB T4_16 T4_17) (HB T5_4 T5_5) (HB T5_0 T5_8) (HB T5_5 T5_8) (HB T5_2 T5_10) (HB T5_5 T5_10) (HB T5_4 T5_12) (HB T5_12 T5_13) (HB T5_12 T5_14) (HB T5_14 T5_15) (HB T5_14 T5_16) (HB T5_16 T5_17) (HB T6_4 T6_5) (HB T6_0 T6_8) (HB T6_5 T6_8) (HB T6_2 T6_10) (HB T6_5 T6_10) (HB T6_4 T6_12) (HB T6_12 T6_13) (HB T6_12 T6_14) (HB T6_14 T6_15) (HB T6_14 T6_16) (HB T6_16 T6_17) (HB T7_4 T7_5) (HB T7_0 T7_8) (HB T7_5 T7_8) (HB T7_2 T7_10) (HB T7_5 T7_10) (HB T7_4 T7_12) (HB T7_12 T7_13) (HB T7_12 T7_14) (HB T7_14 T7_15) (HB T7_14 T7_16) (HB T7_16 T7_17) ))


(assert (and
(or (MATCH recvT4_16 sendT3_10) (MATCH recvT4_16 sendT5_8) )
(or (MATCH recvT4_14 sendT3_2) (MATCH recvT4_14 sendT3_10) (MATCH recvT4_14 sendT5_0) (MATCH recvT4_14 sendT5_8) )
(or (MATCH recvT4_12 sendT3_2) (MATCH recvT4_12 sendT3_10) (MATCH recvT4_12 sendT5_0) (MATCH recvT4_12 sendT5_8) )
(or (MATCH recvT1_4 sendT0_2) (MATCH recvT1_4 sendT2_0) )
(or (MATCH recvT5_16 sendT4_10) (MATCH recvT5_16 sendT6_8) )
(or (MATCH recvT5_14 sendT4_2) (MATCH recvT5_14 sendT4_10) (MATCH recvT5_14 sendT6_0) (MATCH recvT5_14 sendT6_8) )
(or (MATCH recvT5_12 sendT4_2) (MATCH recvT5_12 sendT4_10) (MATCH recvT5_12 sendT6_0) (MATCH recvT5_12 sendT6_8) )
(or (MATCH recvT3_4 sendT2_2) (MATCH recvT3_4 sendT4_0) )
(or (MATCH recvT6_16 sendT5_10) (MATCH recvT6_16 sendT7_8) )
(or (MATCH recvT6_14 sendT5_2) (MATCH recvT6_14 sendT5_10) (MATCH recvT6_14 sendT7_0) (MATCH recvT6_14 sendT7_8) )
(or (MATCH recvT5_4 sendT4_2) (MATCH recvT5_4 sendT6_0) )
(or (MATCH recvT6_12 sendT5_2) (MATCH recvT6_12 sendT5_10) (MATCH recvT6_12 sendT7_0) (MATCH recvT6_12 sendT7_8) )
(or (MATCH recvT0_16 sendT1_8) (MATCH recvT0_16 sendT7_10) )
(or (MATCH recvT7_16 sendT0_8) (MATCH recvT7_16 sendT6_10) )
(or (MATCH recvT7_4 sendT0_0) (MATCH recvT7_4 sendT6_2) )
(or (MATCH recvT0_14 sendT1_0) (MATCH recvT0_14 sendT1_8) (MATCH recvT0_14 sendT7_2) (MATCH recvT0_14 sendT7_10) )
(or (MATCH recvT7_14 sendT0_0) (MATCH recvT7_14 sendT0_8) (MATCH recvT7_14 sendT6_2) (MATCH recvT7_14 sendT6_10) )
(or (MATCH recvT0_12 sendT1_0) (MATCH recvT0_12 sendT1_8) (MATCH recvT0_12 sendT7_2) (MATCH recvT0_12 sendT7_10) )
(or (MATCH recvT7_12 sendT0_0) (MATCH recvT7_12 sendT0_8) (MATCH recvT7_12 sendT6_2) (MATCH recvT7_12 sendT6_10) )
(or (MATCH recvT1_16 sendT0_10) (MATCH recvT1_16 sendT2_8) )
(or (MATCH recvT0_4 sendT1_0) (MATCH recvT0_4 sendT7_2) )
(or (MATCH recvT1_14 sendT0_2) (MATCH recvT1_14 sendT0_10) (MATCH recvT1_14 sendT2_0) (MATCH recvT1_14 sendT2_8) )
(or (MATCH recvT1_12 sendT0_2) (MATCH recvT1_12 sendT0_10) (MATCH recvT1_12 sendT2_0) (MATCH recvT1_12 sendT2_8) )
(or (MATCH recvT2_4 sendT1_2) (MATCH recvT2_4 sendT3_0) )
(or (MATCH recvT2_16 sendT1_10) (MATCH recvT2_16 sendT3_8) )
(or (MATCH recvT2_14 sendT1_2) (MATCH recvT2_14 sendT1_10) (MATCH recvT2_14 sendT3_0) (MATCH recvT2_14 sendT3_8) )
(or (MATCH recvT4_4 sendT3_2) (MATCH recvT4_4 sendT5_0) )
(or (MATCH recvT2_12 sendT1_2) (MATCH recvT2_12 sendT1_10) (MATCH recvT2_12 sendT3_0) (MATCH recvT2_12 sendT3_8) )
(or (MATCH recvT3_16 sendT2_10) (MATCH recvT3_16 sendT4_8) )
(or (MATCH recvT6_4 sendT5_2) (MATCH recvT6_4 sendT7_0) )
(or (MATCH recvT3_14 sendT2_2) (MATCH recvT3_14 sendT2_10) (MATCH recvT3_14 sendT4_0) (MATCH recvT3_14 sendT4_8) )
(or (MATCH recvT3_12 sendT2_2) (MATCH recvT3_12 sendT2_10) (MATCH recvT3_12 sendT4_0) (MATCH recvT3_12 sendT4_8) )
))

(assert (= out_0_0 (+ in_0_0 1000)))
(assert (= out_1_0 (+ in_1_0 1000)))
(assert (= out_2_0 (+ in_2_0 1000)))
(assert (= out_3_0 (+ in_3_0 1000)))
(assert (= out_4_0 (+ in_4_0 1000)))
(assert (= out_5_0 (+ in_5_0 1000)))
(assert (= out_6_0 (+ in_6_0 1000)))
(assert (= out_7_0 (+ in_7_0 1000)))

(assert (not ( and (< in_0_0 1000) (>= in_0_3 1000) (< in_1_0 1000) (>= in_1_3 1000) (< in_2_0 1000) (>= in_2_3 1000) (< in_3_0 1000) (>= in_3_3 1000) (< in_4_0 1000) (>= in_4_3 1000) (< in_5_0 1000) (>= in_5_3 1000) (< in_6_0 1000) (>= in_6_3 1000) (< in_7_0 1000) (>= in_7_3 1000) )))

(check-sat)
